3	25
18	545	20	709	857	100	47	389	890	653	773	343	302	861	40	691	274	872	669	784	669	86	75	963	360	
302	160	249	601	54	68	823	551	446	570	504	715	759	417	312	360	392	157	514	973	980	995	958	185	975	
3255	3255	3255	
